Set parameter Username
Academic license - for non-commercial use only - expires 2024-12-10
Set parameter LazyConstraints to value 1
Set parameter TimeLimit to value 600
Gurobi Optimizer version 10.0.0 build v10.0.0rc2 (linux64)

CPU model: Intel(R) Core(TM) i5-4590 CPU @ 3.30GHz, instruction set [SSE2|AVX|AVX2]
Thread count: 4 physical cores, 4 logical processors, using up to 4 threads

Optimize a model with 425 rows, 100 columns and 489 nonzeros
Model fingerprint: 0x6a3bd859
Variable types: 0 continuous, 100 integer (100 binary)
Coefficient statistics:
  Matrix range     [1e+00, 1e+00]
  Objective range  [1e+00, 1e+01]
  Bounds range     [1e+00, 1e+00]
  RHS range        [1e+00, 1e+00]
Presolve removed 401 rows and 1 columns
Presolve time: 0.00s
Presolved: 24 rows, 99 columns, 88 nonzeros
Variable types: 0 continuous, 99 integer (99 binary)

Root relaxation: objective 6.550000e+01, 25 iterations, 0.00 seconds (0.00 work units)

    Nodes    |    Current Node    |     Objective Bounds      |     Work
 Expl Unexpl |  Obj  Depth IntInf | Incumbent    BestBd   Gap | It/Node Time

     0     0   65.50000    0    8          -   65.50000      -     -    0s
     0     0   90.00000    0    -          -   90.00000      -     -    0s
H    0     0                     175.0000000   90.50000  48.3%     -    0s
     0     0   90.50000    0    4  175.00000   90.50000  48.3%     -    0s
     0     0  102.00000    0    -  175.00000  102.00000  41.7%     -    0s
     0     0  102.00000    0    -  175.00000  102.00000  41.7%     -    0s
     0     0  102.50000    0    8  175.00000  102.50000  41.4%     -    0s
     0     0  107.00000    0    -  175.00000  107.00000  38.9%     -    0s
     0     0  107.00000    0    -  175.00000  107.00000  38.9%     -    0s
H    0     0                     152.0000000  107.00000  29.6%     -    0s
     0     0  107.00000    0    7  152.00000  107.00000  29.6%     -    0s
     0     0  109.00000    0    -  152.00000  109.00000  28.3%     -    0s
H    0     0                     146.0000000  109.00000  25.3%     -    0s
     0     0  109.00000    0    7  146.00000  109.00000  25.3%     -    0s
H    0     0                     144.0000000  109.00000  24.3%     -    0s
     0     2  109.12500    0    9  144.00000  109.12500  24.2%     -    0s
H    1     0                     140.0000000  109.25000  22.0%   0.0    0s
H    2     1                     135.0000000  109.25000  19.1%   4.5    0s
H    3     4                     132.0000000  110.00000  16.7%   5.7    0s
H    4     4                     129.0000000  110.00000  14.7%   6.2    0s
H   21    25                     124.0000000  112.00000  9.68%  19.7    0s
H  601   321                     122.0000000  117.82353  3.42%   8.2    4s
   705   317  118.22807    6   19  122.00000  117.93846  3.33%   7.7    5s
  1632   911  120.00000   13    7  122.00000  118.33333  3.01%   6.3   10s
  2133  1137  119.73501   28   31  122.00000  119.65013  1.93%   6.4   15s

Cutting planes:
  User: 72
  Gomory: 7
  Flow cover: 7
  Zero half: 2
  Lazy constraints: 43

Explored 2181 nodes (14916 simplex iterations) in 15.35 seconds (1.45 work units)
Thread count was 4 (of 4 available processors)

Solution count 10: 122 124 129 ... 175

Optimal solution found (tolerance 1.00e-04)
Best objective 1.220000000000e+02, best bound 1.220000000000e+02, gap 0.0000%

User-callback calls 5854, time in user-callback 13.86 sec
